(set-info :smt-lib-version 2.6)
(set-logic UFNIRA)
(set-info :source |
Generated by: Mirek Olšák, Mikoláš Janota, Chad E. Brown
Generated on: 2024-04-14
Application: Mathematics challenges involving function synthesis
Publications: https://arxiv.org/abs/2404.12048
From a collection by: Vít Musil
Source url: https://prase.cz/library/FunkcionalniRovniceVM/FunkcionalniRovniceVM.pdf
Problem number: Úloha 67
Original source: Spain-2006
|)
(set-info :license "https://creativecommons.org/licenses/by-nc/4.0/")
(set-info :category "crafted")
(set-info :status unsat)

; Header
(declare-const lambda Real)
(assert (> lambda 0.0))
(declare-fun f (Real) Real)

; Equations
(assert (forall ((x Real)) (=> (> x 0.0) (= (f x) 1.0))))

; Negated constraints
(assert (not (and
  (= (f lambda) 1.0)
  (forall ((x Real) (y Real)) (=> (and (> x 0.0) (> y 0.0)) (= (+ (* (f x) (f y)) (* (f (/ lambda x)) (f (/ lambda y)))) (* 2.0 (f (* x y))))))
)))

(check-sat)
(exit)
